25 25
19
3 3   0 0
3 4   0 16
3 5   0 20
3 6   16 19
3 7   19 18
3 8   22 17
3 9   3 16
3 10   0 3
3 11   10 14
3 13   3 0
3 14   10 0
3 17   22 0
3 18   19 0
3 19   16 0
3 25   13 0
4 5   6 20
4 7   6 0
4 13   6 7
6 3   0 13